11,8	0,0	9,0	5,1	0,0	0,0	0,0	0,0	0,0	13,1
13,5	15,2	0,0	16,4	12,4	0,0	0,0	19,1	0,0	0,0
0,0	0,0	7,9	0,0	12,9	5,9	0,0	0,0	11,7	0,0
7,0	0,0	12,6	0,0	0,0	0,0	19,2	0,0	0,0	0,0
0,0	17,5	0,0	10,5	11,3	0,0	0,0	13,4	0,0	0,0
0,0	18,3	7,2	0,0	18,2	18,4	0,0	0,0	19,5	0,0
0,0	9,4	0,0	19,8	0,0	0,0	19,0	0,0	0,0	12,9
7,8	0,0	15,3	0,0	0,0	0,0	0,0	0,0	0,0	6,6
0,0	11,5	0,0	5,3	9,9	0,0	0,0	14,6	0,0	0,0
0,0	0,0	7,6	0,0	0,0	17,4	15,7	0,0	0,0	8,1
									
2,8	3,2	2,6	2,8	3,9	2,8	3,3	2,8	3,9	2,9
